Version identifier: 22.1.0.0 | 2022-03-09 | 1a383f8ce
CPXPARAM_Threads                                 1
CPXPARAM_MIP_Strategy_VariableSelect             3
CPXPARAM_TimeLimit                               599.73730762100001
1 of 1 MIP starts provided solutions.
MIP start 'm1' defined initial solution with objective 93.0000.
Tried aggregator 1 time.
MIP Presolve eliminated 21 rows and 0 columns.
MIP Presolve modified 220 coefficients.
Reduced MIP has 901 rows, 2100 columns, and 25160 nonzeros.
Reduced MIP has 2100 binaries, 0 generals, 0 SOSs, and 0 indicators.
Presolve time = 0.04 sec. (49.58 ticks)
Probing time = 0.01 sec. (8.47 ticks)
Tried aggregator 1 time.
Detecting symmetries...
MIP Presolve modified 13 coefficients.
Reduced MIP has 901 rows, 2100 columns, and 25571 nonzeros.
Reduced MIP has 2100 binaries, 0 generals, 0 SOSs, and 0 indicators.
Presolve time = 0.03 sec. (28.51 ticks)
Probing time = 0.01 sec. (8.53 ticks)
Clique table members: 495.
MIP emphasis: balance optimality and feasibility.
MIP search method: dynamic search.
Parallel mode: none, using 1 thread.
Root relaxation solution time = 0.15 sec. (157.39 ticks)

        Nodes                                         Cuts/
   Node  Left     Objective  IInf  Best Integer    Best Bound    ItCnt     Gap

*     0+    0                           93.0000     5050.0000              --- 
      0     0      100.0000   431       93.0000      100.0000     1639    7.53%
Detecting symmetries...
      0     2      100.0000   107       93.0000      100.0000     1639    7.53%
Elapsed time = 3.40 sec. (3193.35 ticks, tree = 0.01 MB, solutions = 1)
      1     3      100.0000   359       93.0000      100.0000     4363    7.53%
      2     4      100.0000   425       93.0000      100.0000     6005    7.53%
      4     6      100.0000   207       93.0000      100.0000     7986    7.53%
      6     8      100.0000   204       93.0000      100.0000     9461    7.53%
      7     9      100.0000   273       93.0000      100.0000    12807    7.53%
      9    11      100.0000   251       93.0000      100.0000    13482    7.53%
     10    12      100.0000   284       93.0000      100.0000    15022    7.53%
     12    14      100.0000   304       93.0000      100.0000    16335    7.53%
     14    16      100.0000   275       93.0000      100.0000    17639    7.53%
     20    22      100.0000   303       93.0000      100.0000    21056    7.53%
Elapsed time = 7.28 sec. (7095.64 ticks, tree = 0.03 MB, solutions = 1)
     28    30      100.0000   247       93.0000      100.0000    25199    7.53%
     35    37      100.0000   250       93.0000      100.0000    30042    7.53%
     42    44      100.0000   335       93.0000      100.0000    35912    7.53%
     50    52      100.0000   234       93.0000      100.0000    39808    7.53%
     59    60      100.0000   144       93.0000      100.0000    48145    7.53%
     68    68      100.0000    92       93.0000      100.0000    55024    7.53%
     78    78      100.0000    90       93.0000      100.0000    63193    7.53%
     86    84      100.0000    86       93.0000      100.0000    71032    7.53%
     98    95       99.9189   219       93.0000      100.0000    78077    7.53%
    111   108       98.7500   142       93.0000      100.0000    79677    7.53%
Elapsed time = 17.78 sec. (17307.93 ticks, tree = 0.66 MB, solutions = 1)
    126   122       99.8438   181       93.0000      100.0000    81977    7.53%
    143   136       99.8082   214       93.0000      100.0000    84092    7.53%
    159   151       98.7500   140       93.0000      100.0000    85931    7.53%
    174   166       95.0000   116       93.0000      100.0000    87645    7.53%
*   180+  156                           95.0000      100.0000             5.26%
    186   161      100.0000    86       95.0000      100.0000    90233    5.26%
    196   171      100.0000    90       95.0000      100.0000    94202    5.26%
    206   181      100.0000    86       95.0000      100.0000    97906    5.26%
    220   195       99.8000   199       95.0000      100.0000   100998    5.26%
    237   211       98.6667   127       95.0000      100.0000   103188    5.26%
    255   229       98.6667   198       95.0000      100.0000   104833    5.26%
Elapsed time = 27.48 sec. (27153.61 ticks, tree = 1.62 MB, solutions = 2)
    272   245       98.6667   123       95.0000      100.0000   106679    5.26%
    285   258       99.6250   215       95.0000      100.0000   108578    5.26%
    298   270       99.5385   246       95.0000      100.0000   109800    5.26%
    310   280       99.4000   136       95.0000      100.0000   110944    5.26%
    325   291    infeasible             95.0000      100.0000   112975    5.26%
*   336   278      integral     0       97.0000      100.0000   114256    3.09%
    342   282       99.7790   222       97.0000      100.0000   115450    3.09%
    359   299       99.7778   168       97.0000      100.0000   116616    3.09%
    374   314       99.7179   187       97.0000      100.0000   118083    3.09%
    391   331       99.4340   226       97.0000      100.0000   119352    3.09%
    407   347       99.9560   182       97.0000      100.0000   121842    3.09%
Elapsed time = 37.15 sec. (36874.08 ticks, tree = 2.58 MB, solutions = 3)
    426   366       99.9514   233       97.0000      100.0000   123128    3.09%
    443   383       99.9132   185       97.0000      100.0000   124589    3.09%
    464   403       99.7258   219       97.0000      100.0000   126235    3.09%
*   480+  225                           98.0000      100.0000             2.04%
    480   225       99.0000    20       98.0000      100.0000   127528    2.04%
    487   231       99.0000   110       98.0000      100.0000   130597    2.04%
    503   231       99.0000   122       98.0000      100.0000   135343    2.04%
    516   233    infeasible             98.0000      100.0000   139552    2.04%
    533   236       99.9167   106       98.0000      100.0000   143668    2.04%
    550   245       99.7500    89       98.0000      100.0000   147155    2.04%
    566   253       99.3444   110       98.0000      100.0000   151925    2.04%
Elapsed time = 47.12 sec. (46757.25 ticks, tree = 1.83 MB, solutions = 4)
    581   256      100.0000    86       98.0000      100.0000   155528    2.04%
    605   271       99.4286    92       98.0000      100.0000   158685    2.04%
    627   281       99.0000   136       98.0000      100.0000   162398    2.04%
    646   287       99.3333    97       98.0000      100.0000   165749    2.04%
    665   290      100.0000    86       98.0000      100.0000   169807    2.04%
    682   289      100.0000   106       98.0000      100.0000   173416    2.04%
    697   294       99.5000   121       98.0000      100.0000   177632    2.04%
    711   300      100.0000    86       98.0000      100.0000   181156    2.04%
    728   305       99.0833   125       98.0000      100.0000   185161    2.04%
    745   316       99.6667   112       98.0000      100.0000   188561    2.04%
Elapsed time = 57.31 sec. (56639.57 ticks, tree = 2.31 MB, solutions = 4)
    766   326    infeasible             98.0000      100.0000   191597    2.04%
    786   336       99.9000   123       98.0000      100.0000   195018    2.04%
    801   340    infeasible             98.0000      100.0000   197810    2.04%
    814   339    infeasible             98.0000      100.0000   203359    2.04%
    829   339       99.2717   116       98.0000      100.0000   208402    2.04%
    846   348      100.0000   111       98.0000      100.0000   210989    2.04%
    863   359       99.0000    97       98.0000      100.0000   213545    2.04%
*   866    65      integral     0       99.0000      100.0000   213814    1.01%
    880    60      100.0000   132       99.0000      100.0000   218026    1.01%
    899    63    infeasible             99.0000      100.0000   220920    1.01%
    917    65    infeasible             99.0000      100.0000   224852    1.01%
Elapsed time = 67.31 sec. (66394.77 ticks, tree = 0.36 MB, solutions = 5)
    936    64    infeasible             99.0000      100.0000   229229    1.01%
    958    64      100.0000    86       99.0000      100.0000   233234    1.01%
    980    62      100.0000   113       99.0000      100.0000   237553    1.01%
    998    66    infeasible             99.0000      100.0000   240781    1.01%
   1021    67      100.0000    86       99.0000      100.0000   244206    1.01%
   1042    68    infeasible             99.0000      100.0000   248035    1.01%
   1063    76      100.0000    90       99.0000      100.0000   250279    1.01%
   1092    67    infeasible             99.0000      100.0000   255497    1.01%
   1115    66      100.0000    90       99.0000      100.0000   259081    1.01%
   1137    64      100.0000    96       99.0000      100.0000   263248    1.01%
Elapsed time = 77.35 sec. (76203.36 ticks, tree = 0.34 MB, solutions = 5)
   1160    65      100.0000   109       99.0000      100.0000   266953    1.01%
   1181    66      100.0000    98       99.0000      100.0000   270662    1.01%
   1204    63    infeasible             99.0000      100.0000   274616    1.01%
   1223    69      100.0000    96       99.0000      100.0000   277207    1.01%
   1248    65      100.0000   102       99.0000      100.0000   281258    1.01%
   1270    66      100.0000   100       99.0000      100.0000   284478    1.01%
   1292    66      100.0000    94       99.0000      100.0000   288539    1.01%
   1310    66      100.0000    84       99.0000      100.0000   292940    1.01%
   1330    68    infeasible             99.0000      100.0000   297110    1.01%
   1351    67    infeasible             99.0000      100.0000   301102    1.01%
Elapsed time = 87.47 sec. (86183.94 ticks, tree = 0.37 MB, solutions = 5)
   1371    67      100.0000    84       99.0000      100.0000   305476    1.01%
   1390    67      100.0000    86       99.0000      100.0000   308874    1.01%
   1413    66      100.0000    88       99.0000      100.0000   312536    1.01%
   1436    65      100.0000    96       99.0000      100.0000   315774    1.01%
   1459    64      100.0000    98       99.0000      100.0000   319111    1.01%
   1479    66      100.0000    90       99.0000      100.0000   322002    1.01%
   1501    64    infeasible             99.0000      100.0000   326138    1.01%
   1522    63      100.0000   100       99.0000      100.0000   329967    1.01%
   1542    65      100.0000    86       99.0000      100.0000   333552    1.01%
   1626    64      100.0000    98       99.0000      100.0000   349215    1.01%
Elapsed time = 100.30 sec. (98864.52 ticks, tree = 0.34 MB, solutions = 5)
   1715    63      100.0000   104       99.0000      100.0000   363732    1.01%
   1800    63      100.0000   105       99.0000      100.0000   377424    1.01%
   1881    64    infeasible             99.0000      100.0000   391560    1.01%
   1962    67      100.0000   102       99.0000      100.0000   405365    1.01%
   2052    65      100.0000   122       99.0000      100.0000   419137    1.01%
   2142    65      100.0000   105       99.0000      100.0000   431632    1.01%
   2233    67      100.0000   100       99.0000      100.0000   443901    1.01%
   2328    65      100.0000   108       99.0000      100.0000   458553    1.01%
   2411    74      100.0000   102       99.0000      100.0000   470108    1.01%
   2507    65      100.0000   111       99.0000      100.0000   485446    1.01%
Elapsed time = 139.71 sec. (137212.91 ticks, tree = 0.35 MB, solutions = 5)
   2594    64      100.0000    99       99.0000      100.0000   499812    1.01%
   2682    64      100.0000    92       99.0000      100.0000   513575    1.01%
   2766    63      100.0000   102       99.0000      100.0000   530080    1.01%
   2851    64      100.0000   118       99.0000      100.0000   545136    1.01%
   2938    63    infeasible             99.0000      100.0000   561283    1.01%
   3029    62      100.0000   129       99.0000      100.0000   576038    1.01%
   3109    64      100.0000    88       99.0000      100.0000   590577    1.01%
   3192    74      100.0000    85       99.0000      100.0000   601243    1.01%
   3287    71      100.0000    80       99.0000      100.0000   615493    1.01%
   3377    68    infeasible             99.0000      100.0000   629715    1.01%
Elapsed time = 179.08 sec. (175741.46 ticks, tree = 0.38 MB, solutions = 5)
   3463    65      100.0000    72       99.0000      100.0000   646810    1.01%
   3548    64      100.0000   106       99.0000      100.0000   661639    1.01%
   3620    66      100.0000   103       99.0000      100.0000   677093    1.01%
   3689    69      100.0000   100       99.0000      100.0000   693290    1.01%
   3762    64      100.0000    88       99.0000      100.0000   710776    1.01%
   3836    60    infeasible             99.0000      100.0000   727662    1.01%
   3912    68      100.0000    70       99.0000      100.0000   741849    1.01%
   3995    67      100.0000    70       99.0000      100.0000   758055    1.01%
   4074    76      100.0000    68       99.0000      100.0000   772063    1.01%
   4158    66      100.0000    68       99.0000      100.0000   789815    1.01%
Elapsed time = 217.67 sec. (214365.99 ticks, tree = 0.36 MB, solutions = 5)
   4236    64    infeasible             99.0000      100.0000   806059    1.01%
   4314    68      100.0000    68       99.0000      100.0000   822751    1.01%
   4391    69      100.0000    66       99.0000      100.0000   839663    1.01%

Performing restart 1

Repeating presolve.
Tried aggregator 1 time.
MIP Presolve eliminated 1 rows and 100 columns.
Reduced MIP has 900 rows, 2000 columns, and 18310 nonzeros.
Reduced MIP has 2000 binaries, 0 generals, 0 SOSs, and 0 indicators.
Presolve time = 0.01 sec. (9.18 ticks)
Tried aggregator 1 time.
Reduced MIP has 900 rows, 2000 columns, and 18310 nonzeros.
Reduced MIP has 2000 binaries, 0 generals, 0 SOSs, and 0 indicators.
Presolve time = 0.01 sec. (11.52 ticks)
Represolve time = 0.10 sec. (56.32 ticks)
   4432     4      100.0000   257       99.0000      100.0000   852031    1.01%
   4464    36      100.0000    54       99.0000      100.0000   865316    1.01%
*  4470     1      integral     0      100.0000      100.0000   867321    0.00%

Root node processing (before b&c):
  Real time             =    3.40 sec. (3193.40 ticks)
Sequential b&c:
  Real time             =  233.97 sec. (230725.25 ticks)
                          ------------
Total (root+branch&cut) =  237.37 sec. (233918.65 ticks)
Primal:	100
Dual:	100
Status:	Optimal
Time:	237.36
Sequence:
	8
	15
	1
	11
	13
	6
	8
	15
	1
	10
	14
	6
	5
	19
	1
	5
	17
	12
	10
	14
	0
	16
	17
	1
	5
	19
	0
	5
	14
	2
	5
	13
	9
	5
	4
	9
	16
	4
	3
	16
	14
	3
	5
	14
	2
	5
	19
	1
	5
	17
	3
	16
	9
	15
	5
	9
	15
	18
	7
	13
	5
	9
	15
	1
	11
	13
	0
	8
	15
	12
	11
	13
	6
	8
	4
	12
	11
	13
	6
	8
	4
	12
	10
	19
	3
	18
	4
	9
	2
	10
	19
	1
	10
	17
	12
	16
	17
	2
	16
	19
